phcccp.dat
data;
#knitro
param d := 2 ;

param n := 6 ;

param a:=
    0.1 0.1
    0.0 0.1
    1.0 1.1
    0.9 0.9
    2.5 2.5
    2.0 3.0;

param q:=
    1
    1
    1
    1
    1
    1;

param p := 3;

param Q:= 
    2
    2
    2;